DIMACS_lns/graph-1000-98.col
p edge 1000 1825
e 1 742
e 1 333
e 1 365
e 1 520
e 1 8
e 1 484
e 2 296
e 2 475
e 2 131
e 2 69
e 2 512
e 2 357
e 2 103
e 2 895
e 3 571
e 3 604
e 3 986
e 3 360
e 3 705
e 3 324
e 4 362
e 4 126
e 4 918
e 4 347
e 4 218
e 5 368
e 5 382
e 5 653
e 6 852
e 6 526
e 6 978
e 6 47
e 6 300
e 6 438
e 8 908
e 8 549
e 8 529
e 8 729
e 9 792
e 9 180
e 9 456
e 9 44
e 9 984
e 11 523
e 11 619
e 11 95
e 12 994
e 12 733
e 12 415
e 13 935
e 13 516
e 13 359
e 13 246
e 13 61
e 14 151
e 14 327
e 14 233
e 14 897
e 15 89
e 15 862
e 15 172
e 15 134
e 15 423
e 15 497
e 16 420
e 16 695
e 16 612
e 17 213
e 17 299
e 17 624
e 19 305
e 19 831
e 19 273
e 19 244
e 19 610
e 19 419
e 19 223
e 21 361
e 21 668
e 21 133
e 22 903
e 22 885
e 22 443
e 24 632
e 24 816
e 24 364
e 24 355
e 24 71
e 25 159
e 25 104
e 25 520
e 27 804
e 27 422
e 27 935
e 27 360
e 27 912
e 28 465
e 28 582
e 28 935
e 29 212
e 29 771
e 29 518
e 29 680
e 29 939
e 29 85
e 30 507
e 30 943
e 30 438
e 31 756
e 31 735
e 31 319
e 31 969
e 33 795
e 33 409
e 33 587
e 33 280
e 34 680
e 34 330
e 34 447
e 34 192
e 34 954
e 36 342
e 36 729
e 36 617
e 38 902
e 38 547
e 38 727
e 38 914
e 38 851
e 38 817
e 38 188
e 39 482
e 39 90
e 39 842
e 39 898
e 39 231
e 40 797
e 40 106
e 40 799
e 40 355
e 40 853
e 40 760
e 40 435
e 41 735
e 41 436
e 41 216
e 41 687
e 41 576
e 41 871
e 41 123
e 42 574
e 42 488
e 42 757
e 42 209
e 43 847
e 43 329
e 43 116
e 43 724
e 43 831
e 44 52
e 44 965
e 45 540
e 45 730
e 45 886
e 45 563
e 45 159
e 45 295
e 46 967
e 46 730
e 46 917
e 46 90
e 46 472
e 47 275
e 47 738
e 47 975
e 49 171
e 49 885
e 49 585
e 50 55
e 50 180
e 50 804
e 50 475
e 51 124
e 51 779
e 51 611
e 52 313
e 52 945
e 52 98
e 52 298
e 52 621
e 52 87
e 52 841
e 53 635
e 53 208
e 53 55
e 53 343
e 54 331
e 54 612
e 54 884
e 54 104
e 54 876
e 54 648
e 54 380
e 55 769
e 55 832
e 56 681
e 56 993
e 56 224
e 56 625
e 57 444
e 57 539
e 57 713
e 58 174
e 58 949
e 58 618
e 59 570
e 59 107
e 59 154
e 59 60
e 59 709
e 60 617
e 60 866
e 60 261
e 60 795
e 61 438
e 61 142
e 61 976
e 61 534
e 62 257
e 62 748
e 62 380
e 62 829
e 62 640
e 62 915
e 62 788
e 64 361
e 64 997
e 64 779
e 64 389
e 66 842
e 66 558
e 66 541
e 68 795
e 68 442
e 68 434
e 68 519
e 69 77
e 69 161
e 69 813
e 69 748
e 69 130
e 71 697
e 71 994
e 71 176
e 72 422
e 72 407
e 72 883
e 72 390
e 73 830
e 73 818
e 73 764
e 73 561
e 74 98
e 74 859
e 74 539
e 74 835
e 74 325
e 74 86
e 76 750
e 76 803
e 76 103
e 77 749
e 77 771
e 79 203
e 79 374
e 79 509
e 80 305
e 80 844
e 80 900
e 80 975
e 80 843
e 81 330
e 81 797
e 81 275
e 81 796
e 82 921
e 82 907
e 82 359
e 82 760
e 83 203
e 83 841
e 83 915
e 83 227
e 83 934
e 85 186
e 85 790
e 85 771
e 86 745
e 86 272
e 86 463
e 86 645
e 86 721
e 86 200
e 87 292
e 87 863
e 87 608
e 88 410
e 88 144
e 88 572
e 88 324
e 89 501
e 89 831
e 89 299
e 89 711
e 89 760
e 89 352
e 89 753
e 90 669
e 90 951
e 90 822
e 90 251
e 90 994
e 90 223
e 91 414
e 91 102
e 91 785
e 91 972
e 91 319
e 91 219
e 91 648
e 93 595
e 93 541
e 93 518
e 93 597
e 93 950
e 93 831
e 94 400
e 94 996
e 94 408
e 94 529
e 95 604
e 95 938
e 95 395
e 95 822
e 98 359
e 100 987
e 100 450
e 100 486
e 100 474
e 102 796
e 102 294
e 102 405
e 103 571
e 103 206
e 103 430
e 104 482
e 104 626
e 104 673
e 104 596
e 104 996
e 104 906
e 104 789
e 105 952
e 105 986
e 105 369
e 105 241
e 106 279
e 106 466
e 106 544
e 107 247
e 107 664
e 107 144
e 107 463
e 108 781
e 108 774
e 108 746
e 112 842
e 112 964
e 112 490
e 112 247
e 112 640
e 112 512
e 112 996
e 113 393
e 113 262
e 113 645
e 113 344
e 113 986
e 113 845
e 114 937
e 114 743
e 114 582
e 114 176
e 114 851
e 114 992
e 116 669
e 116 375
e 116 411
e 118 171
e 118 581
e 118 371
e 118 153
e 118 420
e 119 568
e 119 913
e 119 148
e 119 206
e 120 131
e 120 885
e 120 736
e 121 369
e 121 638
e 121 917
e 121 262
e 122 149
e 122 694
e 122 983
e 123 773
e 123 532
e 123 801
e 123 133
e 123 438
e 124 725
e 124 343
e 125 366
e 125 296
e 125 456
e 125 257
e 126 375
e 126 945
e 126 181
e 126 411
e 126 424
e 127 524
e 127 701
e 127 174
e 127 496
e 128 371
e 128 459
e 128 169
e 128 568
e 130 573
e 130 866
e 130 629
e 131 618
e 131 470
e 131 696
e 131 655
e 131 404
e 133 354
e 133 259
e 133 723
e 134 398
e 134 207
e 134 493
e 134 817
e 136 326
e 136 303
e 136 701
e 136 239
e 136 667
e 139 783
e 139 701
e 139 385
e 139 254
e 142 832
e 142 786
e 142 883
e 142 865
e 142 892
e 143 824
e 143 754
e 143 590
e 143 748
e 144 989
e 144 932
e 144 323
e 144 269
e 144 459
e 146 157
e 146 523
e 146 167
e 146 981
e 147 698
e 147 702
e 147 507
e 147 688
e 148 488
e 148 346
e 148 669
e 149 415
e 149 193
e 149 844
e 149 921
e 149 625
e 151 859
e 151 938
e 151 523
e 151 300
e 151 943
e 153 498
e 153 879
e 153 459
e 153 194
e 154 825
e 154 468
e 154 400
e 154 715
e 156 825
e 156 692
e 156 715
e 156 949
e 157 865
e 157 171
e 157 420
e 158 270
e 158 916
e 158 398
e 159 852
e 159 359
e 160 636
e 160 342
e 160 632
e 160 889
e 161 529
e 161 421
e 161 933
e 161 602
e 161 990
e 161 322
e 163 380
e 163 921
e 163 376
e 163 785
e 163 788
e 163 483
e 165 254
e 165 640
e 165 188
e 165 986
e 165 453
e 165 192
e 166 879
e 166 939
e 166 260
e 166 608
e 166 284
e 166 532
e 166 424
e 166 640
e 166 192
e 166 472
e 166 438
e 166 451
e 167 294
e 167 748
e 169 671
e 169 529
e 169 790
e 169 925
e 171 884
e 171 232
e 171 939
e 171 712
e 171 692
e 172 212
e 172 486
e 172 804
e 172 423
e 172 697
e 172 453
e 172 217
e 172 224
e 172 319
e 172 327
e 174 709
e 174 415
e 175 966
e 175 798
e 175 743
e 175 629
e 175 831
e 176 329
e 176 592
e 176 321
e 177 919
e 177 690
e 177 741
e 180 929
e 180 326
e 180 618
e 180 802
e 180 413
e 181 917
e 181 753
e 181 479
e 181 730
e 183 355
e 183 392
e 183 998
e 183 824
e 183 259
e 184 602
e 184 711
e 184 885
e 184 892
e 185 197
e 185 421
e 185 772
e 185 786
e 185 676
e 186 701
e 186 785
e 188 760
e 188 355
e 188 788
e 188 441
e 188 844
e 192 580
e 192 803
e 193 608
e 193 279
e 193 367
e 193 486
e 193 327
e 193 537
e 194 297
e 194 803
e 197 352
e 197 473
e 197 410
e 197 895
e 197 614
e 198 604
e 198 430
e 198 393
e 198 729
e 199 973
e 199 929
e 199 662
e 200 602
e 200 555
e 200 449
e 200 232
e 202 456
e 202 834
e 202 286
e 203 231
e 203 518
e 204 429
e 204 322
e 204 851
e 204 420
e 204 550
e 204 578
e 206 711
e 206 585
e 206 210
e 206 917
e 206 477
e 206 341
e 207 975
e 207 632
e 208 977
e 208 951
e 209 561
e 209 934
e 209 475
e 209 778
e 210 979
e 210 482
e 210 834
e 210 261
e 210 970
e 212 610
e 212 587
e 212 801
e 212 802
e 213 387
e 213 332
e 213 965
e 213 439
e 214 997
e 214 528
e 214 621
e 214 482
e 214 263
e 216 224
e 216 299
e 216 917
e 216 686
e 216 572
e 216 401
e 216 812
e 217 420
e 217 765
e 217 939
e 218 961
e 218 712
e 219 601
e 219 356
e 219 856
e 219 531
e 220 434
e 220 468
e 220 892
e 220 578
e 221 865
e 221 532
e 221 756
e 221 572
e 222 870
e 222 808
e 222 935
e 223 304
e 223 712
e 223 306
e 223 319
e 224 286
e 224 543
e 224 276
e 225 519
e 225 625
e 225 728
e 226 291
e 226 690
e 226 768
e 226 931
e 227 262
e 227 738
e 227 337
e 227 873
e 227 936
e 227 410
e 227 681
e 228 912
e 228 673
e 228 276
e 230 941
e 230 918
e 230 233
e 231 680
e 231 554
e 231 450
e 232 859
e 232 993
e 232 659
e 232 296
e 233 860
e 233 730
e 233 872
e 233 901
e 233 391
e 233 1000
e 233 390
e 234 695
e 234 859
e 234 730
e 234 940
e 234 266
e 234 926
e 234 460
e 235 729
e 235 479
e 235 653
e 236 728
e 236 630
e 236 305
e 236 297
e 237 422
e 237 375
e 237 515
e 239 290
e 239 601
e 241 594
e 241 257
e 241 829
e 241 741
e 241 645
e 241 830
e 242 638
e 242 610
e 242 366
e 242 899
e 244 441
e 244 867
e 246 651
e 246 543
e 246 686
e 247 464
e 247 577
e 247 435
e 247 372
e 247 772
e 247 258
e 249 638
e 249 266
e 249 442
e 250 589
e 250 973
e 250 780
e 250 295
e 251 965
e 251 774
e 251 750
e 251 328
e 253 979
e 253 710
e 253 959
e 253 723
e 254 333
e 254 822
e 254 442
e 257 554
e 257 720
e 258 343
e 258 474
e 258 634
e 258 901
e 258 721
e 258 279
e 259 317
e 260 654
e 260 979
e 260 425
e 261 731
e 261 583
e 262 688
e 263 918
e 263 897
e 263 537
e 263 506
e 263 803
e 265 989
e 265 392
e 265 586
e 265 360
e 266 376
e 266 298
e 266 405
e 266 558
e 267 302
e 267 339
e 267 784
e 267 687
e 267 963
e 267 456
e 267 929
e 267 354
e 269 413
e 269 780
e 269 826
e 270 653
e 270 415
e 270 407
e 270 274
e 270 312
e 270 289
e 272 714
e 272 435
e 272 788
e 272 845
e 272 509
e 273 522
e 273 504
e 274 915
e 274 871
e 275 677
e 276 482
e 276 997
e 276 431
e 276 760
e 276 849
e 276 712
e 276 645
e 277 447
e 277 797
e 277 634
e 277 994
e 278 302
e 278 498
e 278 685
e 279 717
e 279 654
e 279 866
e 279 818
e 280 586
e 280 866
e 280 367
e 280 486
e 282 322
e 282 824
e 282 545
e 283 883
e 283 300
e 283 901
e 283 775
e 284 979
e 284 882
e 285 775
e 285 306
e 285 355
e 285 774
e 286 996
e 289 826
e 289 433
e 289 756
e 289 966
e 290 533
e 290 939
e 290 824
e 290 439
e 290 852
e 291 435
e 291 795
e 291 912
e 291 357
e 291 651
e 292 477
e 292 421
e 294 854
e 294 475
e 295 542
e 296 389
e 296 472
e 297 671
e 297 951
e 297 746
e 297 370
e 297 799
e 297 902
e 298 434
e 298 845
e 298 785
e 298 963
e 299 870
e 300 325
e 301 462
e 301 735
e 301 741
e 302 473
e 302 644
e 302 653
e 302 392
e 302 862
e 303 334
e 303 718
e 303 521
e 303 946
e 304 897
e 304 441
e 304 364
e 304 389
e 305 847
e 306 804
e 306 506
e 306 531
e 306 956
e 307 910
e 307 803
e 307 841
e 309 469
e 309 936
e 309 514
e 309 846
e 312 728
e 312 946
e 312 380
e 313 940
e 313 347
e 313 561
e 314 686
e 314 963
e 314 374
e 317 856
e 317 371
e 317 783
e 319 727
e 320 331
e 320 451
e 320 714
e 321 631
e 321 784
e 322 695
e 322 849
e 322 635
e 323 750
e 323 705
e 324 537
e 324 662
e 325 933
e 325 659
e 325 573
e 325 392
e 325 357
e 326 596
e 326 476
e 327 357
e 328 439
e 328 425
e 328 510
e 328 651
e 329 581
e 329 969
e 329 551
e 329 431
e 330 718
e 330 750
e 330 512
e 331 367
e 331 775
e 331 991
e 331 994
e 331 966
e 332 829
e 332 731
e 332 450
e 332 854
e 333 983
e 333 409
e 334 392
e 334 367
e 334 874
e 337 574
e 337 713
e 337 578
e 337 425
e 338 956
e 338 419
e 338 702
e 339 600
e 339 361
e 339 581
e 339 939
e 339 684
e 339 632
e 340 350
e 340 363
e 340 577
e 341 436
e 341 937
e 341 657
e 342 802
e 342 469
e 342 725
e 342 825
e 342 842
e 342 524
e 342 655
e 343 931
e 343 522
e 343 596
e 344 554
e 344 421
e 344 859
e 345 539
e 345 795
e 345 384
e 346 596
e 346 778
e 346 774
e 346 484
e 346 695
e 346 731
e 346 364
e 347 619
e 350 494
e 350 926
e 350 785
e 350 886
e 350 386
e 352 581
e 352 439
e 354 972
e 354 588
e 354 626
e 355 913
e 355 709
e 356 624
e 356 419
e 356 650
e 357 898
e 359 571
e 359 557
e 360 940
e 360 908
e 360 587
e 360 892
e 361 411
e 362 557
e 362 829
e 362 727
e 363 371
e 363 532
e 363 731
e 363 915
e 363 650
e 365 832
e 365 945
e 365 884
e 366 717
e 366 441
e 367 635
e 368 795
e 368 862
e 368 410
e 368 389
e 368 628
e 369 808
e 369 477
e 370 846
e 370 718
e 370 580
e 371 699
e 372 586
e 372 913
e 372 408
e 372 614
e 373 447
e 373 972
e 373 877
e 374 990
e 374 564
e 376 735
e 376 886
e 377 498
e 377 825
e 377 946
e 378 415
e 378 473
e 378 865
e 378 801
e 378 589
e 380 1000
e 380 845
e 382 667
e 382 768
e 384 873
e 384 741
e 384 542
e 385 699
e 385 835
e 385 633
e 386 908
e 386 580
e 386 749
e 387 832
e 387 402
e 387 664
e 388 936
e 388 402
e 388 980
e 389 629
e 389 504
e 390 448
e 390 676
e 390 891
e 390 604
e 391 891
e 391 630
e 392 576
e 393 717
e 393 753
e 395 529
e 395 882
e 398 653
e 398 924
e 400 431
e 400 959
e 400 841
e 401 603
e 401 943
e 401 555
e 401 942
e 401 831
e 401 547
e 402 423
e 403 680
e 403 976
e 403 525
e 403 715
e 404 967
e 404 844
e 404 407
e 404 621
e 404 913
e 404 570
e 405 450
e 407 837
e 407 619
e 408 655
e 408 633
e 408 672
e 409 580
e 409 746
e 410 617
e 410 860
e 410 817
e 411 645
e 411 833
e 413 705
e 414 912
e 414 921
e 415 697
e 415 647
e 415 713
e 415 583
e 421 1000
e 422 780
e 422 898
e 422 584
e 422 965
e 422 644
e 422 871
e 422 617
e 423 886
e 424 614
e 424 915
e 425 885
e 425 726
e 429 456
e 429 677
e 429 866
e 430 779
e 431 484
e 431 730
e 431 959
e 431 907
e 433 483
e 433 735
e 433 748
e 433 837
e 435 577
e 435 724
e 436 537
e 436 621
e 436 526
e 436 846
e 436 443
e 436 441
e 438 930
e 438 710
e 439 537
e 439 694
e 439 499
e 441 702
e 443 531
e 443 566
e 443 526
e 444 832
e 444 1000
e 444 470
e 444 618
e 444 818
e 444 820
e 445 865
e 445 555
e 445 600
e 447 631
e 447 597
e 447 818
e 448 697
e 448 625
e 448 725
e 448 468
e 449 534
e 449 974
e 450 783
e 451 689
e 452 523
e 452 841
e 452 800
e 453 874
e 455 520
e 455 570
e 455 684
e 455 733
e 455 963
e 456 623
e 456 844
e 456 706
e 457 741
e 457 901
e 457 668
e 459 859
e 459 780
e 459 551
e 459 604
e 460 586
e 460 499
e 460 532
e 460 955
e 460 566
e 462 966
e 462 474
e 463 846
e 463 617
e 463 557
e 464 561
e 464 662
e 464 603
e 465 835
e 465 577
e 465 885
e 465 580
e 466 513
e 466 833
e 468 536
e 468 507
e 469 903
e 469 549
e 469 664
e 469 735
e 469 884
e 470 910
e 470 883
e 470 543
e 470 653
e 470 659
e 472 689
e 472 757
e 472 747
e 473 583
e 473 816
e 473 910
e 474 945
e 474 853
e 475 628
e 475 643
e 475 516
e 475 866
e 476 843
e 476 709
e 476 711
e 476 807
e 476 623
e 477 571
e 477 672
e 477 488
e 477 565
e 479 488
e 479 698
e 479 949
e 479 955
e 479 584
e 479 816
e 482 853
e 482 741
e 482 537
e 482 967
e 483 574
e 483 991
e 483 739
e 483 497
e 483 889
e 483 518
e 484 557
e 486 824
e 486 729
e 487 1000
e 487 833
e 487 494
e 487 799
e 488 542
e 490 524
e 490 741
e 493 690
e 493 532
e 493 941
e 493 886
e 494 775
e 494 636
e 494 686
e 496 892
e 496 949
e 497 742
e 497 965
e 497 572
e 497 908
e 497 931
e 498 612
e 498 543
e 498 597
e 498 930
e 499 918
e 501 605
e 501 843
e 501 889
e 504 613
e 504 628
e 506 760
e 506 654
e 507 785
e 507 619
e 509 524
e 510 918
e 510 984
e 511 733
e 511 834
e 511 889
e 511 653
e 512 611
e 513 899
e 513 772
e 514 935
e 514 946
e 514 955
e 515 677
e 515 853
e 515 624
e 515 930
e 516 900
e 516 697
e 518 916
e 519 671
e 520 852
e 520 745
e 521 974
e 521 863
e 521 710
e 522 956
e 522 602
e 523 686
e 523 870
e 524 536
e 524 721
e 524 671
e 524 644
e 525 684
e 525 924
e 525 981
e 525 566
e 526 991
e 526 731
e 526 673
e 528 802
e 528 565
e 529 585
e 531 955
e 531 736
e 532 955
e 532 829
e 533 672
e 533 770
e 534 969
e 536 942
e 537 952
e 537 956
e 537 686
e 539 706
e 540 814
e 540 674
e 541 573
e 543 914
e 544 907
e 544 942
e 544 901
e 545 812
e 545 817
e 545 583
e 547 774
e 549 832
e 549 654
e 550 674
e 550 748
e 550 884
e 551 640
e 551 618
e 551 930
e 555 668
e 557 781
e 557 903
e 557 889
e 557 929
e 558 574
e 558 585
e 558 820
e 560 867
e 560 635
e 560 685
e 561 643
e 563 849
e 563 813
e 564 743
e 564 634
e 565 987
e 567 569
e 567 914
e 567 835
e 568 742
e 568 906
e 568 632
e 569 735
e 569 763
e 570 746
e 571 710
e 571 815
e 571 926
e 572 721
e 573 650
e 574 655
e 576 872
e 576 643
e 577 680
e 580 662
e 581 851
e 581 931
e 582 986
e 583 954
e 584 608
e 585 895
e 586 938
e 586 698
e 586 623
e 587 774
e 587 918
e 588 826
e 588 596
e 589 756
e 589 746
e 590 841
e 590 640
e 592 978
e 592 723
e 592 891
e 593 942
e 593 699
e 593 874
e 594 789
e 594 801
e 595 908
e 595 802
e 595 822
e 596 950
e 596 733
e 597 935
e 597 743
e 600 709
e 600 680
e 601 857
e 601 604
e 601 624
e 603 632
e 603 849
e 603 798
e 603 726
e 605 803
e 605 772
e 605 610
e 608 697
e 608 924
e 610 991
e 610 731
e 611 917
e 612 705
e 612 621
e 612 937
e 613 747
e 613 705
e 614 718
e 617 886
e 617 857
e 618 775
e 618 929
e 618 915
e 618 989
e 618 829
e 619 736
e 619 867
e 621 837
e 623 798
e 624 783
e 624 706
e 626 984
e 628 846
e 628 879
e 628 901
e 628 807
e 628 885
e 629 817
e 629 989
e 630 804
e 630 818
e 630 959
e 631 769
e 631 728
e 631 970
e 633 941
e 634 871
e 634 987
e 635 949
e 636 921
e 638 738
e 638 964
e 640 764
e 640 965
e 640 807
e 644 841
e 644 778
e 645 926
e 647 760
e 647 763
e 647 725
e 647 792
e 648 941
e 648 735
e 648 936
e 648 1000
e 650 731
e 653 667
e 653 983
e 653 687
e 653 907
e 654 860
e 655 754
e 655 677
e 655 753
e 657 674
e 657 916
e 657 892
e 657 664
e 659 681
e 667 984
e 669 852
e 669 724
e 671 949
e 671 871
e 672 710
e 672 789
e 672 929
e 672 924
e 672 814
e 672 692
e 673 815
e 674 763
e 674 800
e 674 796
e 675 697
e 675 715
e 675 784
e 676 768
e 676 898
e 680 712
e 681 900
e 685 972
e 686 990
e 687 925
e 687 831
e 688 826
e 689 830
e 689 784
e 689 937
e 689 788
e 689 842
e 690 907
e 691 712
e 691 770
e 691 930
e 691 772
e 694 773
e 695 745
e 695 997
e 695 873
e 696 980
e 696 728
e 698 908
e 699 950
e 702 978
e 702 933
e 702 964
e 705 910
e 712 979
e 712 893
e 713 932
e 714 792
e 714 876
e 718 799
e 720 780
e 720 929
e 721 833
e 723 843
e 724 974
e 724 998
e 725 969
e 725 786
e 726 940
e 726 869
e 727 800
e 727 921
e 727 798
e 728 997
e 730 837
e 731 912
e 731 847
e 731 951
e 731 938
e 733 883
e 738 753
e 739 910
e 739 964
e 742 783
e 742 874
e 743 989
e 746 919
e 747 1000
e 747 796
e 747 918
e 748 979
e 749 786
e 750 943
e 753 867
e 753 906
e 753 754
e 754 842
e 756 992
e 757 935
e 763 997
e 763 804
e 764 892
e 765 781
e 765 870
e 768 826
e 768 784
e 769 872
e 770 1000
e 771 818
e 773 876
e 774 842
e 775 778
e 778 998
e 778 931
e 778 1000
e 779 981
e 780 925
e 780 970
e 781 857
e 783 815
e 783 919
e 783 952
e 784 796
e 785 853
e 788 969
e 788 932
e 790 986
e 790 955
e 799 975
e 800 820
e 801 837
e 801 910
e 808 812
e 812 933
e 812 992
e 813 967
e 814 846
e 815 921
e 816 990
e 816 949
e 817 964
e 818 869
e 818 877
e 820 877
e 822 900
e 822 931
e 824 934
e 825 856
e 826 970
e 829 856
e 831 865
e 833 989
e 834 983
e 835 899
e 843 979
e 844 932
e 844 849
e 847 964
e 853 961
e 854 950
e 854 893
e 857 873
e 859 912
e 860 925
e 860 930
e 863 902
e 867 873
e 869 956
e 872 907
e 873 961
e 876 989
e 876 903
e 877 954
e 879 916
e 882 949
e 882 929
e 883 924
e 885 940
e 893 908
e 895 964
e 900 949
e 900 951
e 902 993
e 907 976
e 910 912
e 913 919
e 918 973
e 918 930
e 919 930
e 921 981
e 921 959
e 926 996
e 932 940
e 932 945
e 935 989
e 935 981
e 940 969
e 949 951
e 950 975
e 951 965
e 961 990
e 964 989
e 967 994
e 975 977
e 975 996
e 977 981
e 980 996
e 981 996
